************************************************
* Input file for program FUE                   *
* DOCTYPE ATSW-interface SYSTEM                *
************************************************

** Frequency of time series: either 1(A), 4(Q) or 12(M):
 12
** Number of observations and starting date of time series:
 216  1 2002 D
** Number of deterministic variables (including seasonal components):
11
**
cos 1
sin 1
cos 2
sin 2
cos 3
sin 3
cos 4
sin 4
cos 5
sin 5
alter
**
0 0 0 0 0 0 0 0 0 0 0 
**
0.000000  1
**
0.000000  1
**
0.000000  1
**
0.000000  1
**
0.000000  1
**
0.000000  1
**
0.000000  1
**
0.000000  1
**
0.000000  1
**
0.000000  1
**
0.000000  1
**
0 0 0 0 0 0 0 0 0 0 0 
** Number and orders of regular AR operators:
1 3
**
0.000000  1
0.000000  1
0.000000  1
** Number and orders of annual AR operators:
0
** Number and orders of regular MA operators:
0
** Number and orders of anual MA operators:
0
** Number and frequencies of regular AR(2) operators with fixed frequency:
0
** Number and frequencies of regular MA(2) operators with fixed frequency:
0
** Mean parameter (mu):
0.000000 1
** Box-Cox lambda, m. Regular differences and complete annual differences:
 0.00  1  0
** Individual factors of the annual difference (starting at freq 0.0):
 0 0 0 0 0 0 0
** ACF/PACF bands (0 Automatic) and reescaling factor:
 0 1.00
** Time series (stochastic and non-standard deterministic variables):
77.700000
78.000000
78.200000
78.100000
78.200000
78.200000
78.300000
78.200000
78.200000
78.100000
77.800000
78.500000
78.500000
79.000000
79.000000
78.800000
78.600000
78.900000
79.000000
79.000000
79.000000
79.000000
78.800000
79.400000
79.400000
79.600000
79.900000
80.100000
80.300000
80.300000
80.400000
80.500000
80.300000
80.400000
80.300000
81.200000
80.600000
80.900000
81.300000
81.000000
81.200000
81.300000
81.700000
81.800000
81.900000
81.900000
81.700000
82.300000
82.000000
82.400000
82.400000
82.700000
82.700000
82.900000
83.200000
83.000000
82.700000
82.800000
82.800000
83.500000
83.500000
83.800000
84.000000
84.400000
84.400000
84.500000
84.900000
84.800000
84.900000
85.100000
85.600000
86.100000
85.800000
86.200000
86.600000
86.400000
86.900000
87.200000
87.700000
87.400000
87.400000
87.200000
86.800000
87.000000
86.600000
87.100000
87.000000
87.000000
87.000000
87.300000
87.300000
87.500000
87.100000
87.200000
87.100000
87.800000
87.300000
87.600000
88.100000
88.100000
88.100000
88.100000
88.200000
88.300000
88.200000
88.300000
88.400000
89.000000
88.700000
89.300000
89.800000
89.800000
89.800000
89.900000
90.100000
90.200000
90.300000
90.400000
90.500000
90.700000
90.600000
91.200000
91.700000
91.600000
91.500000
91.400000
91.700000
92.100000
92.200000
92.200000
92.200000
92.500000
92.100000
92.600000
93.000000
92.600000
93.000000
93.100000
93.500000
93.500000
93.500000
93.300000
93.500000
93.900000
93.300000
93.800000
94.000000
93.900000
93.800000
94.000000
94.300000
94.300000
94.300000
94.100000
94.100000
94.000000
93.100000
93.800000
94.300000
94.700000
94.900000
94.900000
95.100000
95.000000
94.900000
94.900000
94.300000
94.300000
93.600000
93.900000
94.500000
94.600000
95.100000
95.200000
95.500000
95.400000
95.500000
95.600000
95.000000
95.600000
95.100000
95.600000
95.800000
96.200000
96.200000
96.500000
96.900000
97.000000
97.000000
96.900000
96.500000
96.900000
96.400000
96.700000
97.200000
97.500000
98.200000
98.300000
98.700000
98.800000
99.000000
99.100000
98.500000
98.500000
97.700000
98.100000
98.500000
99.400000
99.600000
99.900000
100.300000
100.200000
100.200000
100.200000
99.500000
100.000000
